/*********************************************
 * OPL 12.9.0.0 Data
 * Author: HP
 * Creation Date: 12 juin 2020 at 15:25:03
 *********************************************/
start=500;
finish=0;
tasks = {0,
 1,
 2,
 3,
 4,
 5,
 6,
 7,
 8,
 9,
 10,
 11,
 12,
 13,
 14,
 15,
 16,
 17,
 18,
 19,
 20,
 21,
 22,
 23,
 24,
 25,
 26,
 27,
 28,
 29,
 30,
 31,
 32,
 33,
 34,
 35,
 36,
 37,
 38,
 39,
 40,
 41,
 42,
 43,
 44,
 45,
 46,
 47,
 48,
 49,
 50,
 51,
 52,
 53,
 54,
 55,
 56,
 57,
 58,
 59,
 60,
 61,
 62,
 63,
 64,
 65,
 66,
 67,
 68,
 69,
 70,
 71,
 72,
 73,
 74,
 75,
 76,
 77,
 78,
 79,
 80,
 81,
 82,
 83,
 84,
 85,
 86,
 87,
 88,
 89,
 90,
 91,
 92,
 93,
 94,
 95,
 96,
 97,
 98,
 99,
 100,
 101,
 102,
 103,
 104,
 105,
 106,
 107,
 108,
 109,
 110,
 111,
 112,
 113,
 114,
 115,
 116,
 117,
 118,
 119,
 120,
 121,
 122,
 123,
 124,
 125,
 126,
 127,
 128,
 129,
 130,
 131,
 132,
 133,
 134,
 135,
 136,
 137,
 138,
 139,
 140,
 141,
 142,
 143,
 144,
 145,
 146,
 147,
 148,
 149,
 150,
 151,
 152,
 153,
 154,
 155,
 156,
 157,
 158,
 159,
 160,
 161,
 162,
 163,
 164,
 165,
 166,
 167,
 168,
 169,
 170,
 171,
 172,
 173,
 174,
 175,
 176,
 177,
 178,
 179,
 180,
 181,
 182,
 183,
 184,
 185,
 186,
 187,
 188,
 189,
 190,
 191,
 192,
 193,
 194,
 195,
 196,
 197,
 198,
 199,
 200,
 201,
 202,
 203,
 204,
 205,
 206,
 207,
 208,
 209,
 210,
 211,
 212,
 213,
 214,
 215,
 216,
 217,
 218,
 219,
 220,
 221,
 222,
 223,
 224,
 225,
 226,
 227,
 228,
 229,
 230,
 231,
 232,
 233,
 234,
 235,
 236,
 237,
 238,
 239,
 240,
 241,
 242,
 243,
 244,
 245,
 246,
 247,
 248,
 249,
 250,
 251,
 252,
 253,
 254,
 255,
 256,
 257,
 258,
 259,
 260,
 261,
 262,
 263,
 264,
 265,
 266,
 267,
 268,
 269,
 270,
 271,
 272,
 273,
 274,
 275,
 276,
 277,
 278,
 279,
 280,
 281,
 282,
 283,
 284,
 285,
 286,
 287,
 288,
 289,
 290,
 291,
 292,
 293,
 294,
 295,
 296,
 297,
 298,
 299,
 300,
 301,
 302,
 303,
 304,
 305,
 306,
 307,
 308,
 309,
 310,
 311,
 312,
 313,
 314,
 315,
 316,
 317,
 318,
 319,
 320,
 321,
 322,
 323,
 324,
 325,
 326,
 327,
 328,
 329,
 330,
 331,
 332,
 333,
 334,
 335,
 336,
 337,
 338,
 339,
 340,
 341,
 342,
 343,
 344,
 345,
 346,
 347,
 348,
 349,
 350,
 351,
 352,
 353,
 354,
 355,
 356,
 357,
 358,
 359,
 360,
 361,
 362,
 363,
 364,
 365,
 366,
 367,
 368,
 369,
 370,
 371,
 372,
 373,
 374,
 375,
 376,
 377,
 378,
 379,
 380,
 381,
 382,
 383,
 384,
 385,
 386,
 387,
 388,
 389,
 390,
 391,
 392,
 393,
 394,
 395,
 396,
 397,
 398,
 399,
 400,
 401,
 402,
 403,
 404,
 405,
 406,
 407,
 408,
 409,
 410,
 411,
 412,
 413,
 414,
 415,
 416,
 417,
 418,
 419,
 420,
 421,
 422,
 423,
 424,
 425,
 426,
 427,
 428,
 429,
 430,
 431,
 432,
 433,
 434,
 435,
 436,
 437,
 438,
 439,
 440,
 441,
 442,
 443,
 444,
 445,
 446,
 447,
 448,
 449,
 450,
 451,
 452,
 453,
 454,
 455,
 456,
 457,
 458,
 459,
 460,
 461,
 462,
 463,
 464,
 465,
 466,
 467,
 468,
 469,
 470,
 471,
 472,
 473,
 474,
 475,
 476,
 477,
 478,
 479,
 480,
 481,
 482,
 483,
 484,
 485,
 486,
 487,
 488,
 489,
 490,
 491,
 492,
 493,
 494,
 495,
 496,
 497,
 498,
 499,
 500};
adjList={<1, 0, 0>, <2, 0, 0>, <3, 0, 0>, <4, 0, 0>, <5, 3, 1>, <6, 4, 3>, <7, 6, 9>, <8, 0, 0>, <9, 0, 0>, <10, 3, 9>, <11, 3, 3>, <12, 0, 0>, <13, 3, 7>, <14, 12, 8>, <15, 7, 1>, <16, 7, 1>, <17, 14, 8>, <18, 3, 7>, <19, 6, 1>, <20, 0, 0>, <21, 19, 8>, <22, 3, 4>, <23, 10, 6>, <24, 1, 4>, <25, 13, 3>, <26, 3, 8>, <27, 7, 9>, <28, 11, 8>, <29, 10, 4>, <30, 8, 4>, <31, 16, 4>, <32, 1, 8>, <33, 25, 9>, <34, 10, 1>, <35, 13, 5>, <36, 8, 2>, <37, 7, 5>, <38, 1, 8>, <39, 23, 7>, <40, 8, 9>, <41, 15, 8>, <42, 19, 5>, <43, 14, 9>, <44, 30, 1>, <45, 3, 5>, <46, 16, 1>, <47, 30, 6>, <48, 43, 8>, <49, 7, 6>, <50, 3, 1>, <51, 0, 0>, <52, 0, 0>, <53, 51, 9>, <54, 15, 6>, <55, 1, 8>, <56, 33, 2>, <57, 29, 3>, <58, 1, 8>, <59, 43, 3>, <60, 4, 6>, <61, 51, 6>, <62, 13, 5>, <63, 39, 9>, <64, 10, 3>, <65, 17, 5>, <66, 60, 6>, <67, 6, 1>, <68, 33, 9>, <69, 5, 1>, <70, 26, 9>, <71, 33, 2>, <72, 67, 4>, <73, 5, 4>, <74, 64, 8>, <75, 2, 2>, <76, 13, 9>, <77, 10, 6>, <78, 59, 2>, <79, 0, 0>, <80, 54, 4>, <81, 0, 0>, <82, 2, 8>, <83, 16, 5>, <84, 6, 1>, <85, 17, 5>, <86, 1, 9>, <87, 8, 4>, <88, 23, 3>, <89, 17, 5>, <90, 58, 3>, <91, 6, 2>, <92, 15, 2>, <93, 3, 7>, <94, 6, 7>, <95, 54, 8>, <96, 42, 6>, <97, 2, 8>, <98, 19, 4>, <99, 3, 6>, <100, 0, 0>, <101, 91, 4>, <102, 19, 6>, <103, 88, 5>, <104, 43, 6>, <105, 0, 0>, <106, 7, 1>, <107, 92, 4>, <108, 8, 8>, <109, 104, 5>, <110, 0, 0>, <111, 39, 2>, <112, 59, 2>, <113, 52, 3>, <114, 47, 1>, <115, 26, 9>, <116, 26, 9>, <117, 0, 0>, <118, 11, 9>, <119, 98, 1>, <120, 43, 2>, <121, 5, 2>, <122, 42, 7>, <123, 19, 8>, <124, 0, 0>, <125, 19, 8>, <126, 72, 7>, <127, 38, 2>, <128, 41, 6>, <129, 128, 2>, <130, 42, 5>, <131, 30, 1>, <132, 0, 0>, <133, 42, 5>, <134, 96, 1>, <135, 61, 9>, <136, 7, 2>, <137, 7, 1>, <138, 63, 1>, <139, 95, 4>, <140, 0, 0>, <141, 71, 6>, <142, 6, 5>, <143, 17, 5>, <144, 6, 3>, <145, 5, 3>, <146, 92, 3>, <147, 84, 4>, <148, 10, 6>, <149, 104, 3>, <150, 16, 7>, <151, 52, 2>, <152, 72, 8>, <153, 0, 0>, <154, 8, 2>, <155, 18, 3>, <156, 151, 5>, <157, 6, 1>, <158, 18, 2>, <159, 116, 1>, <160, 114, 8>, <161, 72, 2>, <162, 60, 2>, <163, 6, 4>, <164, 57, 6>, <165, 34, 6>, <166, 3, 5>, <167, 122, 7>, <168, 3, 1>, <169, 23, 5>, <170, 71, 4>, <171, 10, 6>, <172, 134, 7>, <173, 34, 1>, <174, 164, 7>, <175, 65, 5>, <176, 34, 4>, <177, 8, 4>, <178, 10, 8>, <179, 83, 5>, <180, 10, 4>, <181, 6, 7>, <182, 3, 8>, <183, 72, 6>, <184, 7, 3>, <185, 0, 0>, <186, 20, 4>, <187, 171, 4>, <188, 178, 9>, <189, 4, 4>, <190, 7, 5>, <191, 16, 6>, <192, 6, 7>, <193, 11, 9>, <194, 16, 3>, <195, 18, 3>, <196, 11, 4>, <197, 39, 7>, <198, 15, 4>, <199, 51, 8>, <200, 72, 9>, <201, 0, 0>, <202, 132, 1>, <203, 102, 9>, <204, 11, 3>, <205, 11, 1>, <206, 34, 7>, <207, 64, 5>, <208, 78, 9>, <209, 59, 2>, <210, 140, 1>, <211, 95, 7>, <212, 178, 6>, <213, 0, 0>, <214, 179, 7>, <215, 18, 7>, <216, 190, 1>, <217, 20, 7>, <218, 34, 7>, <219, 0, 0>, <220, 66, 2>, <221, 10, 2>, <222, 104, 7>, <223, 189, 4>, <224, 18, 5>, <225, 178, 7>, <226, 221, 2>, <227, 40, 1>, <228, 96, 5>, <229, 10, 4>, <230, 213, 5>, <231, 230, 4>, <232, 48, 8>, <233, 216, 7>, <234, 18, 8>, <235, 226, 3>, <236, 91, 3>, <237, 203, 9>, <238, 155, 2>, <239, 83, 8>, <240, 1, 5>, <241, 34, 3>, <242, 25, 1>, <243, 139, 9>, <244, 128, 8>, <245, 91, 1>, <246, 178, 8>, <247, 5, 7>, <248, 107, 5>, <249, 1, 3>, <250, 230, 1>, <251, 16, 7>, <252, 37, 3>, <253, 206, 9>, <254, 23, 6>, <255, 249, 4>, <256, 13, 3>, <257, 62, 5>, <258, 28, 7>, <259, 83, 1>, <260, 113, 9>, <261, 95, 1>, <262, 18, 3>, <263, 14, 5>, <264, 199, 4>, <265, 59, 9>, <266, 87, 5>, <267, 14, 7>, <268, 193, 2>, <269, 169, 4>, <270, 251, 3>, <271, 234, 4>, <272, 43, 3>, <273, 25, 1>, <274, 54, 9>, <275, 26, 5>, <276, 72, 6>, <277, 107, 7>, <278, 169, 5>, <279, 137, 6>, <280, 91, 6>, <281, 93, 1>, <282, 8, 2>, <283, 129, 8>, <284, 202, 2>, <285, 1, 9>, <286, 11, 5>, <287, 34, 1>, <288, 54, 6>, <289, 92, 4>, <290, 282, 5>, <291, 104, 4>, <292, 237, 6>, <293, 134, 7>, <294, 0, 0>, <295, 67, 9>, <296, 3, 5>, <297, 16, 9>, <298, 211, 2>, <299, 13, 7>, <300, 8, 7>, <301, 176, 1>, <302, 0, 0>, <303, 15, 3>, <304, 171, 7>, <305, 203, 9>, <306, 151, 9>, <307, 223, 7>, <308, 2, 5>, <309, 218, 4>, <310, 7, 9>, <311, 221, 9>, <312, 172, 8>, <313, 1, 5>, <314, 172, 1>, <315, 215, 4>, <316, 302, 2>, <317, 62, 9>, <318, 171, 6>, <319, 15, 3>, <320, 37, 4>, <321, 274, 7>, <322, 147, 4>, <323, 42, 8>, <324, 59, 9>, <325, 181, 8>, <326, 216, 4>, <327, 140, 1>, <328, 188, 6>, <329, 1, 9>, <330, 27, 5>, <331, 178, 5>, <332, 78, 3>, <333, 7, 7>, <334, 6, 4>, <335, 56, 1>, <336, 116, 6>, <337, 306, 7>, <338, 20, 4>, <339, 251, 8>, <340, 0, 0>, <341, 177, 7>, <342, 196, 1>, <343, 104, 4>, <344, 147, 8>, <345, 93, 9>, <346, 121, 3>, <347, 248, 3>, <348, 34, 5>, <349, 5, 8>, <350, 13, 7>, <351, 298, 2>, <352, 345, 8>, <353, 232, 8>, <354, 134, 4>, <355, 189, 3>, <356, 47, 9>, <357, 257, 9>, <358, 226, 2>, <359, 10, 7>, <360, 12, 1>, <361, 354, 2>, <362, 66, 1>, <363, 71, 1>, <364, 188, 2>, <365, 356, 5>, <366, 241, 1>, <367, 41, 8>, <368, 291, 5>, <369, 283, 1>, <370, 38, 2>, <371, 11, 7>, <372, 14, 5>, <373, 34, 6>, <374, 64, 8>, <375, 351, 5>, <376, 145, 4>, <377, 54, 6>, <378, 207, 6>, <379, 15, 9>, <380, 10, 5>, <381, 33, 4>, <382, 172, 9>, <383, 13, 1>, <384, 0, 0>, <385, 152, 3>, <386, 128, 9>, <387, 10, 9>, <388, 3, 2>, <389, 7, 7>, <390, 83, 9>, <391, 374, 1>, <392, 188, 8>, <393, 100, 4>, <394, 18, 2>, <395, 1, 5>, <396, 250, 6>, <397, 238, 6>, <398, 2, 8>, <399, 90, 6>, <400, 0, 0>, <401, 391, 4>, <402, 359, 6>, <403, 30, 8>, <404, 319, 4>, <405, 283, 1>, <406, 239, 4>, <407, 93, 9>, <408, 344, 1>, <409, 20, 5>, <410, 164, 7>, <411, 399, 5>, <412, 127, 3>, <413, 26, 3>, <414, 88, 6>, <415, 23, 5>, <416, 60, 3>, <417, 1, 4>, <418, 362, 1>, <419, 2, 4>, <420, 22, 5>, <421, 178, 7>, <422, 39, 8>, <423, 126, 2>, <424, 397, 1>, <425, 157, 6>, <426, 11, 8>, <427, 91, 8>, <428, 13, 1>, <429, 7, 5>, <430, 177, 3>, <431, 19, 8>, <432, 244, 7>, <433, 11, 4>, <434, 140, 7>, <435, 162, 3>, <436, 16, 6>, <437, 376, 6>, <438, 19, 5>, <439, 255, 7>, <440, 171, 1>, <441, 187, 7>, <442, 5, 8>, <443, 345, 7>, <444, 280, 7>, <445, 89, 8>, <446, 73, 7>, <447, 374, 3>, <448, 0, 0>, <449, 134, 3>, <450, 187, 4>, <451, 167, 7>, <452, 315, 1>, <453, 1, 9>, <454, 100, 2>, <455, 135, 5>, <456, 10, 4>, <457, 125, 5>, <458, 1, 7>, <459, 211, 2>, <460, 1, 4>, <461, 332, 8>, <462, 148, 2>, <463, 401, 6>, <464, 256, 8>, <465, 20, 6>, <466, 181, 5>, <467, 1, 5>, <468, 138, 9>, <469, 354, 7>, <470, 178, 1>, <471, 16, 3>, <472, 222, 9>, <473, 397, 7>, <474, 414, 7>, <475, 171, 1>, <476, 147, 2>, <477, 204, 6>, <478, 345, 5>, <479, 59, 1>, <480, 252, 1>, <481, 446, 5>, <482, 193, 5>, <483, 15, 5>, <484, 425, 1>, <485, 288, 3>, <486, 315, 1>, <487, 306, 4>, <488, 178, 5>, <489, 130, 6>, <490, 1, 5>, <491, 322, 8>, <492, 374, 7>, <493, 391, 3>, <494, 41, 6>, <495, 322, 3>, <496, 78, 1>, <497, 355, 7>, <498, 295, 4>, <499, 63, 6>, <500, 9, 0>, <500, 21, 0>, <500, 24, 0>, <500, 31, 0>, <500, 32, 0>, <500, 35, 0>, <500, 36, 0>, <500, 44, 0>, <500, 45, 0>, <500, 46, 0>, <500, 49, 0>, <500, 50, 0>, <500, 53, 0>, <500, 55, 0>, <500, 68, 0>, <500, 69, 0>, <500, 70, 0>, <500, 74, 0>, <500, 75, 0>, <500, 76, 0>, <500, 77, 0>, <500, 79, 0>, <500, 80, 0>, <500, 81, 0>, <500, 82, 0>, <500, 85, 0>, <500, 86, 0>, <500, 94, 0>, <500, 97, 0>, <500, 99, 0>, <500, 101, 0>, <500, 103, 0>, <500, 105, 0>, <500, 106, 0>, <500, 108, 0>, <500, 109, 0>, <500, 110, 0>, <500, 111, 0>, <500, 112, 0>, <500, 115, 0>, <500, 117, 0>, <500, 118, 0>, <500, 119, 0>, <500, 120, 0>, <500, 123, 0>, <500, 124, 0>, <500, 131, 0>, <500, 133, 0>, <500, 136, 0>, <500, 141, 0>, <500, 142, 0>, <500, 143, 0>, <500, 144, 0>, <500, 146, 0>, <500, 149, 0>, <500, 150, 0>, <500, 153, 0>, <500, 154, 0>, <500, 156, 0>, <500, 158, 0>, <500, 159, 0>, <500, 160, 0>, <500, 161, 0>, <500, 163, 0>, <500, 165, 0>, <500, 166, 0>, <500, 168, 0>, <500, 170, 0>, <500, 173, 0>, <500, 174, 0>, <500, 175, 0>, <500, 180, 0>, <500, 182, 0>, <500, 183, 0>, <500, 184, 0>, <500, 185, 0>, <500, 186, 0>, <500, 191, 0>, <500, 192, 0>, <500, 194, 0>, <500, 195, 0>, <500, 197, 0>, <500, 198, 0>, <500, 200, 0>, <500, 201, 0>, <500, 205, 0>, <500, 208, 0>, <500, 209, 0>, <500, 210, 0>, <500, 212, 0>, <500, 214, 0>, <500, 217, 0>, <500, 219, 0>, <500, 220, 0>, <500, 224, 0>, <500, 225, 0>, <500, 227, 0>, <500, 228, 0>, <500, 229, 0>, <500, 231, 0>, <500, 233, 0>, <500, 235, 0>, <500, 236, 0>, <500, 240, 0>, <500, 242, 0>, <500, 243, 0>, <500, 245, 0>, <500, 246, 0>, <500, 247, 0>, <500, 253, 0>, <500, 254, 0>, <500, 258, 0>, <500, 259, 0>, <500, 260, 0>, <500, 261, 0>, <500, 262, 0>, <500, 263, 0>, <500, 264, 0>, <500, 265, 0>, <500, 266, 0>, <500, 267, 0>, <500, 268, 0>, <500, 269, 0>, <500, 270, 0>, <500, 271, 0>, <500, 272, 0>, <500, 273, 0>, <500, 275, 0>, <500, 276, 0>, <500, 277, 0>, <500, 278, 0>, <500, 279, 0>, <500, 281, 0>, <500, 284, 0>, <500, 285, 0>, <500, 286, 0>, <500, 287, 0>, <500, 289, 0>, <500, 290, 0>, <500, 292, 0>, <500, 293, 0>, <500, 294, 0>, <500, 296, 0>, <500, 297, 0>, <500, 299, 0>, <500, 300, 0>, <500, 301, 0>, <500, 303, 0>, <500, 304, 0>, <500, 305, 0>, <500, 307, 0>, <500, 308, 0>, <500, 309, 0>, <500, 310, 0>, <500, 311, 0>, <500, 312, 0>, <500, 313, 0>, <500, 314, 0>, <500, 316, 0>, <500, 317, 0>, <500, 318, 0>, <500, 320, 0>, <500, 321, 0>, <500, 323, 0>, <500, 324, 0>, <500, 325, 0>, <500, 326, 0>, <500, 327, 0>, <500, 328, 0>, <500, 329, 0>, <500, 330, 0>, <500, 331, 0>, <500, 333, 0>, <500, 334, 0>, <500, 335, 0>, <500, 336, 0>, <500, 337, 0>, <500, 338, 0>, <500, 339, 0>, <500, 340, 0>, <500, 341, 0>, <500, 342, 0>, <500, 343, 0>, <500, 346, 0>, <500, 347, 0>, <500, 348, 0>, <500, 349, 0>, <500, 350, 0>, <500, 352, 0>, <500, 353, 0>, <500, 357, 0>, <500, 358, 0>, <500, 360, 0>, <500, 361, 0>, <500, 363, 0>, <500, 364, 0>, <500, 365, 0>, <500, 366, 0>, <500, 367, 0>, <500, 368, 0>, <500, 369, 0>, <500, 370, 0>, <500, 371, 0>, <500, 372, 0>, <500, 373, 0>, <500, 375, 0>, <500, 377, 0>, <500, 378, 0>, <500, 379, 0>, <500, 380, 0>, <500, 381, 0>, <500, 382, 0>, <500, 383, 0>, <500, 384, 0>, <500, 385, 0>, <500, 386, 0>, <500, 387, 0>, <500, 388, 0>, <500, 389, 0>, <500, 390, 0>, <500, 392, 0>, <500, 393, 0>, <500, 394, 0>, <500, 395, 0>, <500, 396, 0>, <500, 398, 0>, <500, 400, 0>, <500, 402, 0>, <500, 403, 0>, <500, 404, 0>, <500, 405, 0>, <500, 406, 0>, <500, 407, 0>, <500, 408, 0>, <500, 409, 0>, <500, 410, 0>, <500, 411, 0>, <500, 412, 0>, <500, 413, 0>, <500, 415, 0>, <500, 416, 0>, <500, 417, 0>, <500, 418, 0>, <500, 419, 0>, <500, 420, 0>, <500, 421, 0>, <500, 422, 0>, <500, 423, 0>, <500, 424, 0>, <500, 426, 0>, <500, 427, 0>, <500, 428, 0>, <500, 429, 0>, <500, 430, 0>, <500, 431, 0>, <500, 432, 0>, <500, 433, 0>, <500, 434, 0>, <500, 435, 0>, <500, 436, 0>, <500, 437, 0>, <500, 438, 0>, <500, 439, 0>, <500, 440, 0>, <500, 441, 0>, <500, 442, 0>, <500, 443, 0>, <500, 444, 0>, <500, 445, 0>, <500, 447, 0>, <500, 448, 0>, <500, 449, 0>, <500, 450, 0>, <500, 451, 0>, <500, 452, 0>, <500, 453, 0>, <500, 454, 0>, <500, 455, 0>, <500, 456, 0>, <500, 457, 0>, <500, 458, 0>, <500, 459, 0>, <500, 460, 0>, <500, 461, 0>, <500, 462, 0>, <500, 463, 0>, <500, 464, 0>, <500, 465, 0>, <500, 466, 0>, <500, 467, 0>, <500, 468, 0>, <500, 469, 0>, <500, 470, 0>, <500, 471, 0>, <500, 472, 0>, <500, 473, 0>, <500, 474, 0>, <500, 475, 0>, <500, 476, 0>, <500, 477, 0>, <500, 478, 0>, <500, 479, 0>, <500, 480, 0>, <500, 481, 0>, <500, 482, 0>, <500, 483, 0>, <500, 484, 0>, <500, 485, 0>, <500, 486, 0>, <500, 487, 0>, <500, 488, 0>, <500, 489, 0>, <500, 490, 0>, <500, 491, 0>, <500, 492, 0>, <500, 493, 0>, <500, 494, 0>, <500, 495, 0>, <500, 496, 0>, <500, 497, 0>, <500, 498, 0>, <500, 499, 0>};
nbteams=20;
teams= [0,0,0,0,0,0,0 ,0 ,0 ,0 ,0 ,0 ,0 ,0 ,0 ,0 ,0 ,0 ,0 ,0 ,0 ,0 ,0 ,0 ,0 ,0 ,0 ,0 ,0 ,0 ,0 ,0 ,0 ,0 ,0 ,0 ,0 ,0 ,0 ,0 ,0 ,0 ,0 ,0 ,0 ,0 ,0 ,0 ,0 ,0 ,0 ,0 ,0 ,0 ,0 ,0 ,0 ,0 ,0 ,0 ,0 ,0 ,0 ,0 ,0 ,0 ,0 ,0 ,0 ,0 ,0 ,0 ,0 ,0 ,0 ,0 ,0 ,0 ,0 ,0 ,0 ,0 ,0 ,0 ,0 ,0 ,0 ,0 ,0 ,0 ,0 ,0 ,0 ,0 ,0 ,0 ,0 ,0 ,0 ,0 ,0 ,0 ,0 ,0 ,0 ,0 ,0 ,0 ,0 ,0 ,0 ,0 ,0 ,0 ,0 ,0 ,0 ,0 ,0 ,0 ,0 ,0 ,0 ,0 ,0 ,0 ,0 ,0 ,0 ,0 ,0 ,0 ,0 ,0 ,0 ,0 ,0 ,0 ,0 ,0 ,0 ,0 ,0 ,0 ,0 ,0 ,0 ,0 ,0 ,0 ,0 ,0 ,0 ,0 ,0 ,0 ,0 ,0 ,0 ,0 ,0 ,0 ,0 ,0 ,0 ,0 ,0 ,0 ,0 ,0 ,0 ,0 ,0 ,0 ,0 ,0 ,0 ,0 ,0 ,0 ,0 ,0 ,0 ,0 ,0 ,0 ,0 ,0 ,0 ,0 ,0 ,0 ,0 ,0 ,0 ,0 ,0 ,0 ,0 ,0 ,0 ,0 ,0 ,0 ,0 ,0 ,0 ,0 ,0 ,0 ,0 ,0 ,0 ,0 ,0 ,0 ,0 ,0 ,0 ,0 ,0 ,0 ,0 ,0 ,0 ,0 ,0 ,0 ,0 ,0 ,0 ,0 ,0 ,0 ,0 ,0 ,0 ,0 ,0 ,0 ,0 ,0 ,0 ,0 ,0 ,0 ,0 ,0 ,0 ,0 ,0 ,0 ,0 ,0 ,0 ,0 ,0 ,0 ,0 ,0 ,0 ,0 ,0 ,0 ,0 ,0 ,0 ,0 ,0 ,0 ,0 ,0 ,0 ,0 ,0 ,0 ,0 ,0 ,0 ,0 ,0 ,0 ,0 ,0 ,0 ,0 ,0 ,0 ,0 ,0 ,0 ,0 ,0 ,0 ,0 ,0 ,0 ,0 ,0 ,0 ,0 ,0 ,0 ,0 ,0 ,0 ,0 ,0 ,0 ,0 ,0 ,0 ,0 ,0 ,0 ,0 ,0 ,0 ,0 ,0 ,0 ,0 ,0 ,0 ,0 ,0 ,0 ,0 ,0 ,0 ,0 ,0 ,0 ,0 ,0 ,0 ,0 ,0 ,0 ,0 ,0 ,0 ,0 ,0 ,0 ,0 ,0 ,0 ,0 ,0 ,0 ,0 ,0 ,0 ,0 ,0 ,0 ,0 ,0 ,0 ,0 ,0 ,0 ,0 ,0 ,0 ,0 ,0 ,0 ,0 ,0 ,0 ,0 ,0 ,0 ,0 ,0 ,0 ,0 ,0 ,0 ,0 ,0 ,0 ,0 ,0 ,0 ,0 ,0 ,0 ,0 ,0 ,0 ,0 ,0 ,0 ,0 ,0 ,0 ,0 ,0 ,0 ,0 ,0 ,0 ,0 ,0 ,0 ,0 ,0 ,0 ,0 ,0 ,0 ,0 ,0 ,0 ,0 ,0 ,0 ,0 ,0 ,0 ,0 ,0 ,0 ,0 ,0 ,0 ,0 ,0 ,0 ,0 ,0 ,0 ,0 ,0 ,0 ,0 ,0 ,0 ,0 ,0 ,0 ,0 ,0 ,0 ,0 ,0 ,0 ,0 ,0 ,0 ,0 ,0 ,0 ,0 ,0 ,0 ,0 ,0 ,0 ,0 ,0 ,0 ,0 ,0 ,0 ,0 ,0 ,0 ,0 ,0 ,0 ,0 ,0 ,0 ,0 ,0 ,0 ,0 ,0 ,0 ,0 ,0 ,0 ,0 ,0 ,0 ,0 ,0 ,0 ,0 ,0 ,0 ,0 ,0 ,0 ,0 ,0 ,0 ]; 